668
1614
1185
1291
2020
1794
1667
1636
1261
662
1091
243
129
664
1998
1215
983
1000
1453
2149
1665
2159
2136
1861
1311
1491
450
1933
241
386
1862
801
1053
2143
1996
1423
1560
1753
321
1775
1793
970
187
1655
860
1127
1573
204
266
2184
